n = 10;

m = 16;

5	69	33	25	5	10	6	41	37	24
18	64	7	54	60	37	55	49	64	74
7	11	50	27	77	33	53	2	2	56
52	35	44	26	10	3	78	73	19	21
20	47	59	46	29	22	66	55	26	44
64	62	73	41	9	43	57	45	5	17
16	5	45	75	49	10	28	72	79	49
80	45	57	65	60	79	26	79	39	40
42	65	74	68	1	5	56	56	33	67
13	1	17	20	5	38	45	48	74	8 
69	54	34	43	68      62	53	13	55	15
8	37	63	34	78	51	53	76	4	5 
5	8	80	8	51	34	63	70	26	37
25	5	30	13	21	57	13	49	43	9 
60	27	37	29	64	76	5	35	62	47
20	47	59	46	29	22	66	55	26	44